19
0 1 1 0 2 2 2 3 4 1 0 5 3 6 2 3 7 3 4 0 7 1 8 3 7 9 5 10 7 8 5 11 9 4 10 9 12 2 3 4 13 11 13 12 5 11 7 14 0 15 8 13 11 12 15 11 14 13 10 14 10 14 0 16 8 16 16 2 15 15 1 4 5 10 12 12 15 9 9 1 13 11 16 4 8 6 8 6 3 6 17 18 17 6 1 0 1 9 7 9 
